experiments/sat_smt/run/sat-r/results/chris.res
solved=true
solvingTime=1.224496364593505859375
nActions=7