experiments/sat_smt/run/sat-r/results/chris.out
Timesteps: 1
s UNSATISFIABLE
real 0.09
user 0.00
sys 0.00
Timesteps: 2
s UNSATISFIABLE
real 0.10
user 0.02
sys 0.00
Timesteps: 3
s UNSATISFIABLE
real 0.13
user 0.03
sys 0.00
Timesteps: 4
s UNSATISFIABLE
real 0.14
user 0.04
sys 0.00
Timesteps: 5
s UNSATISFIABLE
real 0.13
user 0.06
sys 0.01
Timesteps: 6
s UNSATISFIABLE
real 0.18
user 0.09
sys 0.00
Timesteps: 7
s SATISFIABLE
real 0.27
user 0.17
sys 0.01
